r = [
0,106,138,329,26,193,235,143,222,338,268,133,336,99,67,12,266,230,77,264,104,260,197,323,252,263,0
];
p = [
0,11,21,11,4,18,29,13,29,15,29,28,25,1,9,8,10,21,3,18,8,30,29,10,4,3,0
];
e = [
0,6,13,19,1,6,4,16,13,7,5,11,8,19,5,8,11,17,2,13,6,13,1,8,17,8,0
];
d = [
0,315,283,381,148,283,431,156,251,366,297,161,361,299,126,27,310,318,278,403,185,469,397,333,307,266,496
];
d_bar = [
0,325,302,391,152,299,457,168,277,380,323,186,384,300,134,34,319,337,281,419,192,496,423,342,311,269,496
];
w = [
0,0.6,0.684210526,1.9,0.25,0.375,0.153846154,1.333333333,0.5,0.5,0.192307692,0.44,0.347826087,19,0.625,1.142857143,1.222222222,0.894736842,0.666666667,0.8125,0.857142857,0.481481481,0.038461538,0.888888889,4.25,2.666666667,0
];
